c Random generated cnf formula, satisfiable: true
p cnf 10 50
-10 1 -8 0
-2 3 -7 0
1 8 5 0
7 3 -9 0
-2 -5 1 0
-10 6 7 0
-10 8 -4 0
-1 5 3 0
3 -6 -8 0
-6 5 2 0
3 6 -9 0
8 -5 -4 0
6 -7 2 0
-9 5 -10 0
5 -7 9 0
2 5 1 0
-7 -8 10 0
2 7 -1 0
-8 -5 -3 0
-9 -7 -5 0
9 7 -10 0
-6 -1 -4 0
-10 -6 -2 0
9 -3 -7 0
-7 5 -8 0
2 -5 -3 0
-8 5 7 0
-7 8 2 0
3 5 -10 0
9 4 6 0
-2 5 4 0
-6 5 -4 0
-10 5 -6 0
4 3 -8 0
3 8 -4 0
-7 10 -8 0
5 -8 3 0
-6 2 9 0
-6 9 -4 0
1 -7 -6 0
-7 5 6 0
-10 5 -2 0
-6 2 8 0
6 2 8 0
6 2 -8 0
-5 8 -3 0
-7 -10 -3 0
-1 -3 4 0
-3 -1 -5 0
-4 1 6 0
